/*********************************************
 * OPL 22.1.1.0 Data
 * Author: lucas
 * Creation Date: 18 de set de 2023 at 16:36:29
 *********************************************/

Mes = {1, 2, 3, 4, 5, 6, 7, 8, 9, 10, 11, 12};
Tipo_Hora = {"Hora Normal", "Hora extra"};
Custo_Unitario = [13, 18];
Custo_Estoque = 1.5;  
Capacidade_Mensal = [5500, 1300];